Version identifier: 22.1.0.0 | 2022-03-09 | 1a383f8ce
CPXPARAM_Threads                                 1
CPXPARAM_MIP_Strategy_VariableSelect             3
CPXPARAM_TimeLimit                               599.64329611300002
1 of 1 MIP starts provided solutions.
MIP start 'm1' defined initial solution with objective 93.0000.
Tried aggregator 1 time.
MIP Presolve eliminated 18 rows and 0 columns.
MIP Presolve modified 235 coefficients.
Reduced MIP has 903 rows, 2100 columns, and 25030 nonzeros.
Reduced MIP has 2100 binaries, 0 generals, 0 SOSs, and 0 indicators.
Presolve time = 0.04 sec. (56.51 ticks)
Probing time = 0.01 sec. (7.99 ticks)
Tried aggregator 1 time.
Detecting symmetries...
MIP Presolve modified 14 coefficients.
Reduced MIP has 903 rows, 2100 columns, and 25429 nonzeros.
Reduced MIP has 2100 binaries, 0 generals, 0 SOSs, and 0 indicators.
Presolve time = 0.02 sec. (28.77 ticks)
Probing time = 0.01 sec. (8.05 ticks)
Clique table members: 593.
MIP emphasis: balance optimality and feasibility.
MIP search method: dynamic search.
Parallel mode: none, using 1 thread.
Root relaxation solution time = 0.11 sec. (114.42 ticks)

        Nodes                                         Cuts/
   Node  Left     Objective  IInf  Best Integer    Best Bound    ItCnt     Gap

*     0+    0                           93.0000     5050.0000              --- 
      0     0      100.0000   422       93.0000      100.0000     1362    7.53%
      0     0      100.0000   322       93.0000      Cuts: 22     2317    7.53%
      0     0      100.0000   114       93.0000    Cliques: 3     2354    7.53%
      0     0      100.0000   270       93.0000      Cuts: 78     3244    7.53%
      0     0      100.0000   244       93.0000      Cuts: 11     3739    7.53%
      0     0      100.0000   235       93.0000    Cliques: 6     4032    7.53%
Detecting symmetries...
      0     0      100.0000   279       93.0000      Cuts: 43     4435    7.53%
Detecting symmetries...
      0     2      100.0000   108       93.0000      100.0000     4435    7.53%
Elapsed time = 4.76 sec. (4681.68 ticks, tree = 0.01 MB, solutions = 1)
      1     3      100.0000   344       93.0000      100.0000     7604    7.53%
      3     5      100.0000   168       93.0000      100.0000     8888    7.53%
      6     8      100.0000   131       93.0000      100.0000     9520    7.53%
      7     9      100.0000   340       93.0000      100.0000    11818    7.53%
      9    11      100.0000   276       93.0000      100.0000    13405    7.53%
     10    12      100.0000   354       93.0000      100.0000    15166    7.53%
     13    15      100.0000   301       93.0000      100.0000    16844    7.53%
     15    17      100.0000   319       93.0000      100.0000    18096    7.53%
     17    19      100.0000   262       93.0000      100.0000    19225    7.53%
     24    26      100.0000   259       93.0000      100.0000    22831    7.53%
Elapsed time = 9.42 sec. (9243.24 ticks, tree = 0.07 MB, solutions = 1)
     33    35      100.0000   247       93.0000      100.0000    25590    7.53%
     40    42      100.0000   261       93.0000      100.0000    27886    7.53%
     50    52      100.0000   249       93.0000      100.0000    30360    7.53%
     61    63      100.0000   249       93.0000      100.0000    32607    7.53%
     72    74      100.0000   201       93.0000      100.0000    34657    7.53%
     80    82      100.0000   212       93.0000      100.0000    36876    7.53%
     90    92      100.0000   240       93.0000      100.0000    39639    7.53%
    100   102      100.0000   257       93.0000      100.0000    43546    7.53%
    108   110      100.0000   269       93.0000      100.0000    48090    7.53%
    117   119      100.0000   259       93.0000      100.0000    52281    7.53%
Elapsed time = 20.59 sec. (20223.39 ticks, tree = 0.80 MB, solutions = 1)
*   120+  120                           95.0000      100.0000             5.26%
    125   127      100.0000   195       95.0000      100.0000    54344    5.26%
    136   138      100.0000   179       95.0000      100.0000    56865    5.26%
    147   149      100.0000   189       95.0000      100.0000    59902    5.26%
    159   161      100.0000   182       95.0000      100.0000    61887    5.26%
    167   169      100.0000   210       95.0000      100.0000    65342    5.26%
    178   179      100.0000   161       95.0000      100.0000    70042    5.26%
    188   188      100.0000   192       95.0000      100.0000    75275    5.26%
    198   196      100.0000   211       95.0000      100.0000    81469    5.26%
    209   206      100.0000   163       95.0000      100.0000    84934    5.26%
    222   213      100.0000   171       95.0000      100.0000    94110    5.26%
Elapsed time = 31.06 sec. (30194.78 ticks, tree = 1.56 MB, solutions = 2)
    236   222       98.7831   209       95.0000      100.0000   101471    5.26%
    251   230      100.0000   164       95.0000      100.0000   110158    5.26%
    265   237      100.0000   161       95.0000      100.0000   118953    5.26%
    279   248      100.0000   184       95.0000      100.0000   125491    5.26%
    298   260       98.0000   176       95.0000      100.0000   131100    5.26%
    317   274       98.0000   124       95.0000      100.0000   136065    5.26%
    336   286       98.0000   111       95.0000      100.0000   139898    5.26%
    352   289      100.0000   195       95.0000      100.0000   145524    5.26%
    362   296      100.0000   211       95.0000      100.0000   152531    5.26%
    373   303      100.0000   240       95.0000      100.0000   158949    5.26%
Elapsed time = 41.68 sec. (40145.44 ticks, tree = 2.27 MB, solutions = 2)
    383   310      100.0000   202       95.0000      100.0000   164303    5.26%
    393   319      100.0000   238       95.0000      100.0000   169420    5.26%
    402   325      100.0000   176       95.0000      100.0000   175531    5.26%
    414   330      100.0000   207       95.0000      100.0000   184211    5.26%
    426   338       99.8568   242       95.0000      100.0000   191460    5.26%
    439   345      100.0000   223       95.0000      100.0000   198835    5.26%
    458   351       99.0000   176       95.0000      100.0000   204332    5.26%
    476   357       97.0000   142       95.0000      100.0000   210391    5.26%
    506   359    infeasible             95.0000      100.0000   214893    5.26%
    520   365       98.0000   257       95.0000      100.0000   219824    5.26%
Elapsed time = 52.27 sec. (49985.59 ticks, tree = 2.81 MB, solutions = 2)
    536   376       97.0000   148       95.0000      100.0000   224488    5.26%
    549   383      100.0000   277       95.0000      100.0000   229094    5.26%
    558   391      100.0000   276       95.0000      100.0000   233615    5.26%
    564   397      100.0000   269       95.0000      100.0000   235312    5.26%
    575   405       99.0000   281       95.0000      100.0000   241204    5.26%
    583   411      100.0000   240       95.0000      100.0000   248086    5.26%
    592   417      100.0000   235       95.0000      100.0000   254549    5.26%
    599   421       99.0000   262       95.0000      100.0000   263460    5.26%
    607   426       99.0000   259       95.0000      100.0000   272734    5.26%
    615   431      100.0000   211       95.0000      100.0000   280877    5.26%
Elapsed time = 63.19 sec. (60149.76 ticks, tree = 3.37 MB, solutions = 2)
    627   438       98.0000   159       95.0000      100.0000   288509    5.26%
    648   451       96.0000   115       95.0000      100.0000   293988    5.26%
    663   461       99.0000   249       95.0000      100.0000   297679    5.26%
    675   465       99.8034   255       95.0000      100.0000   304628    5.26%
    689   473       97.0000   156       95.0000      100.0000   309185    5.26%
    704   478       98.0000   145       95.0000      100.0000   314538    5.26%
    723   487    infeasible             95.0000      100.0000   319013    5.26%
    753   488       97.0000   103       95.0000      100.0000   325005    5.26%
    774   494       97.0000   139       95.0000      100.0000   331139    5.26%
    801   499       97.0000    85       95.0000      100.0000   336308    5.26%
Elapsed time = 73.83 sec. (69953.78 ticks, tree = 3.97 MB, solutions = 2)
    818   507       98.0000   207       95.0000      100.0000   342474    5.26%
    834   515       97.9902   205       95.0000      100.0000   349178    5.26%
    855   526       97.0000   107       95.0000      100.0000   353048    5.26%
    873   529       97.0000   193       95.0000      100.0000   360230    5.26%
    890   530       97.0000   168       95.0000      100.0000   366075    5.26%
    910   535       97.0000   123       95.0000      100.0000   372728    5.26%
    926   539      100.0000   251       95.0000      100.0000   378304    5.26%
    938   548       97.0000   146       95.0000      100.0000   383686    5.26%
    959   557       97.0000   114       95.0000      100.0000   388575    5.26%
    986   561       96.0000   118       95.0000      100.0000   393837    5.26%
Elapsed time = 84.43 sec. (79832.46 ticks, tree = 4.55 MB, solutions = 2)
    996   567      100.0000   275       95.0000      100.0000   397859    5.26%
   1006   567    infeasible             95.0000      100.0000   405692    5.26%
   1015   568    infeasible             95.0000      100.0000   414126    5.26%
   1030   577       98.0000   127       95.0000      100.0000   419240    5.26%
   1045   590       98.0000   134       95.0000      100.0000   424217    5.26%
   1065   605       97.0000    98       95.0000      100.0000   428704    5.26%
   1082   610       97.0000   125       95.0000      100.0000   435524    5.26%
   1098   614      100.0000   442       95.0000      100.0000   439777    5.26%
   1103   619      100.0000   410       95.0000      100.0000   443428    5.26%
   1110   626      100.0000   290       95.0000      100.0000   447315    5.26%
Elapsed time = 94.90 sec. (89619.07 ticks, tree = 5.14 MB, solutions = 2)
   1120   634    infeasible             95.0000      100.0000   451400    5.26%
   1130   638      100.0000   389       95.0000      100.0000   455529    5.26%
   1138   646      100.0000   342       95.0000      100.0000   456516    5.26%
   1147   655      100.0000   311       95.0000      100.0000   457510    5.26%
   1156   664      100.0000   328       95.0000      100.0000   458598    5.26%
   1166   674      100.0000   306       95.0000      100.0000   459388    5.26%
   1175   683      100.0000   305       95.0000      100.0000   460967    5.26%
   1185   693      100.0000   261       95.0000      100.0000   462126    5.26%
   1195   703      100.0000   256       95.0000      100.0000   463309    5.26%
   1236   744      100.0000   324       95.0000      100.0000   468178    5.26%
Elapsed time = 108.05 sec. (102603.32 ticks, tree = 6.22 MB, solutions = 2)
   1274   782      100.0000   286       95.0000      100.0000   474815    5.26%
   1309   816       99.0000   218       95.0000      100.0000   484424    5.26%
   1362   869       98.0000   105       95.0000      100.0000   492892    5.26%
   1421   918       97.0000   200       95.0000      100.0000   507818    5.26%
*  1447+  924                           96.0000      100.0000             4.17%
   1449   927      100.0000   221       96.0000      100.0000   523079    4.17%
   1483   954       99.7407   225       96.0000      100.0000   545337    4.17%
   1536   983       99.0000   162       96.0000      100.0000   575895    4.17%

Performing restart 1

Repeating presolve.
Tried aggregator 1 time.
MIP Presolve eliminated 0 rows and 96 columns.
MIP Presolve modified 6 coefficients.
Reduced MIP has 903 rows, 2004 columns, and 18161 nonzeros.
Reduced MIP has 2004 binaries, 0 generals, 0 SOSs, and 0 indicators.
Presolve time = 0.01 sec. (9.72 ticks)
Tried aggregator 1 time.
Reduced MIP has 903 rows, 2004 columns, and 18161 nonzeros.
Reduced MIP has 2004 binaries, 0 generals, 0 SOSs, and 0 indicators.
Presolve time = 0.01 sec. (10.44 ticks)
Represolve time = 0.10 sec. (58.71 ticks)
   1557     0      100.0000   296       96.0000      Cuts: 23   586164    4.17%
   1557     0      100.0000   289       96.0000   Cliques: 26   586656    4.17%
   1557     0      100.0000   468       96.0000     Cuts: 265   588210    4.17%
   1557     0      100.0000   178       96.0000       Cuts: 9   588875    4.17%
   1557     0      100.0000   414       96.0000      Cuts: 63   589893    4.17%
   1557     0      100.0000   172       96.0000      Cuts: 19   590412    4.17%
   1557     0      100.0000    25       96.0000    Cliques: 3   590464    4.17%
   1557     0      100.0000   243       96.0000      Cuts: 75   591366    4.17%
   1557     0      100.0000    62       96.0000       Cuts: 3   591520    4.17%
   1557     0      100.0000   115       96.0000      Cuts: 82   591937    4.17%
*  1557+    0                          100.0000      100.0000             0.00%
   1557     0        cutoff            100.0000      100.0000   591937    0.00%

Clique cuts applied:  6
Zero-half cuts applied:  1

Root node processing (before b&c):
  Real time             =    4.74 sec. (4670.92 ticks)
Sequential b&c:
  Real time             =  147.04 sec. (138849.95 ticks)
                          ------------
Total (root+branch&cut) =  151.78 sec. (143520.87 ticks)
Primal:	100
Dual:	100
Status:	Optimal
Time:	151.76
Sequence:
	14
	5
	1
	12
	15
	3
	16
	11
	5
	0
	11
	8
	1
	12
	15
	1
	7
	10
	4
	7
	10
	3
	7
	10
	4
	7
	10
	3
	7
	10
	4
	7
	10
	4
	18
	12
	15
	18
	7
	10
	3
	7
	10
	3
	18
	12
	15
	18
	0
	13
	2
	16
	13
	9
	16
	13
	2
	16
	13
	2
	19
	13
	2
	19
	8
	11
	16
	3
	15
	12
	18
	8
	12
	1
	15
	0
	6
	2
	12
	8
	6
	11
	17
	6
	11
	17
	6
	11
	17
	6
	11
	17
	6
	11
	17
	6
	11
	5
	0
	14
